# set
set V := C1 C2 C3 C4 C5 C6 C7 C8 C9 C10 ;
set F := F11 F12 F13 F14 F11_1 F11_2 F11_3 F11_4 F12_1 F12_2 F12_3 F12_4 F13_1 F13_2 F13_3 F13_4 F14_1 F14_2 F14_3 F14_4 ;
set D0 := N0;
set Dσ := Nσ;

# param
param Cf := 200;		# ECV fixed cost
param C := 200;		# ECV max load
param Q := 77.75;		# ECV/BSV battery level
param r := 1;		# ECV consumption

param Cr := 100;		# recharging cost
param Ct := 10;		# travel cost
param Cs ;		# battery swap cost
param n := 10;		# number of customers
param g := 10.41;	# recharging rate

param m :=
N0 0
C1 10
C2 20
C3 10
C4 10
C5 30
C6 10
C7 20
C8 20
C9 40
C10 10
F11 0
F11_1 0
F11_2 0
F11_3 0
F11_4 0
F12 0
F12_1 0
F12_2 0
F12_3 0
F12_4 0
F13 0
F13_1 0
F13_2 0
F13_3 0
F13_4 0
F14 0
F14_1 0
F14_2 0
F14_3 0
F14_4 0
Nσ 0
;

param e :=
N0 0
C1 0
C2 0
C3 0
C4 0
C5 0
C6 0
C7 0
C8 0
C9 0
C10 0
F11 0
F11_1 0
F11_2 0
F11_3 0
F11_4 0
F12 0
F12_1 0
F12_2 0
F12_3 0
F12_4 0
F13 0
F13_1 0
F13_2 0
F13_3 0
F13_4 0
F14 0
F14_1 0
F14_2 0
F14_3 0
F14_4 0
Nσ 0
;

param l :=
N0 1236
C1 1122
C2 1113
C3 1094
C4 1129
C5 1119
C6 1109
C7 1126
C8 1133
C9 1111
C10 1122
F11 1236
F11_1 1236
F11_2 1236
F11_3 1236
F11_4 1236
F12 1236
F12_1 1236
F12_2 1236
F12_3 1236
F12_4 1236
F13 1236
F13_1 1236
F13_2 1236
F13_3 1236
F13_4 1236
F14 1236
F14_1 1236
F14_2 1236
F14_3 1236
F14_4 1236
Nσ 1236
;

param s :=
N0 0
C1 90
C2 90
C3 90
C4 90
C5 90
C6 90
C7 90
C8 90
C9 90
C10 90
F11 0
F11_1 0
F11_2 0
F11_3 0
F11_4 0
F12 0
F12_1 0
F12_2 0
F12_3 0
F12_4 0
F13 0
F13_1 0
F13_2 0
F13_3 0
F13_4 0
F14 0
F14_1 0
F14_2 0
F14_3 0
F14_4 0
Nσ 0
;

param d : N0 C1 C2 C3 C4 C5 C6 C7 C8 C9 C10 F11 F11_1 F11_2 F11_3 F11_4 F12 F12_1 F12_2 F12_3 F12_4 F13 F13_1 F13_2 F13_3 F13_4 F14 F14_1 F14_2 F14_3 F14_4 Nσ  :=
N0 0.0000 23.8537 32.3883 51.4782 16.1245 26.9258 36.0555 19.3132 12.1655 35.0000 23.3238 0.0000 0.0000 0.0000 0.0000 0.0000 36.2353 36.2353 36.2353 36.2353 36.2353 24.0832 24.0832 24.0832 24.0832 24.0832 46.2277 46.2277 46.2277 46.2277 46.2277 0.0000
C1 23.8537 0.0000 47.4342 32.3883 37.6431 32.3110 50.4876 20.0998 33.3017 19.8494 25.0000 23.8537 23.8537 23.8537 23.8537 23.8537 52.1536 52.1536 52.1536 52.1536 52.1536 31.2570 31.2570 31.2570 31.2570 31.2570 24.6982 24.6982 24.6982 24.6982 24.6982 23.8537
C2 32.3883 47.4342 0.0000 79.5550 39.9625 58.9406 62.6817 28.1780 21.1896 43.8634 25.0000 32.3883 32.3883 32.3883 32.3883 32.3883 61.4003 61.4003 61.4003 61.4003 61.4003 17.8045 17.8045 17.8045 17.8045 17.8045 72.1110 72.1110 72.1110 72.1110 72.1110 32.3883
C3 51.4782 32.3883 79.5550 0.0000 59.4138 40.3113 60.4152 52.4690 63.0714 46.0977 57.2189 51.4782 51.4782 51.4782 51.4782 51.4782 63.5059 63.5059 63.5059 63.5059 63.5059 63.6396 63.6396 63.6396 63.6396 63.6396 9.8489 9.8489 9.8489 9.8489 9.8489 51.4782
C4 16.1245 37.6431 39.9625 59.4138 0.0000 23.7697 22.8035 35.1710 19.7990 51.0392 38.6264 16.1245 16.1245 16.1245 16.1245 16.1245 21.9317 21.9317 21.9317 21.9317 21.9317 37.7359 37.7359 37.7359 37.7359 37.7359 56.4004 56.4004 56.4004 56.4004 56.4004 16.1245
C5 26.9258 32.3110 58.9406 40.3113 23.7697 0.0000 20.6155 42.5206 37.8550 51.4782 47.6340 26.9258 26.9258 26.9258 26.9258 26.9258 23.4094 23.4094 23.4094 23.4094 23.4094 50.2494 50.2494 50.2494 50.2494 50.2494 40.5216 40.5216 40.5216 40.5216 40.5216 26.9258
C6 36.0555 50.4876 62.6817 60.4152 22.8035 20.6155 0.0000 55.0727 42.5206 68.0074 59.3633 36.0555 36.0555 36.0555 36.0555 36.0555 3.6056 3.6056 3.6056 3.6056 3.6056 59.6657 59.6657 59.6657 59.6657 59.6657 61.1310 61.1310 61.1310 61.1310 61.1310 36.0555
C7 19.3132 20.0998 28.1780 52.4690 35.1710 42.5206 55.0727 0.0000 20.6155 18.3848 5.3852 19.3132 19.3132 19.3132 19.3132 19.3132 55.4617 55.4617 55.4617 55.4617 55.4617 11.1803 11.1803 11.1803 11.1803 11.1803 44.3847 44.3847 44.3847 44.3847 44.3847 19.3132
C8 12.1655 33.3017 21.1896 63.0714 19.7990 37.8550 42.5206 20.6155 0.0000 38.8973 22.0000 12.1655 12.1655 12.1655 12.1655 12.1655 41.7253 41.7253 41.7253 41.7253 41.7253 18.9737 18.9737 18.9737 18.9737 18.9737 57.1402 57.1402 57.1402 57.1402 57.1402 12.1655
C9 35.0000 19.8494 43.8634 46.0977 51.0392 51.4782 68.0074 18.3848 38.8973 0.0000 19.2094 35.0000 35.0000 35.0000 35.0000 35.0000 69.1231 69.1231 69.1231 69.1231 69.1231 26.1725 26.1725 26.1725 26.1725 26.1725 36.4966 36.4966 36.4966 36.4966 36.4966 35.0000
C10 23.3238 25.0000 25.0000 57.2189 38.6264 47.6340 59.3633 5.3852 22.0000 19.2094 0.0000 23.3238 23.3238 23.3238 23.3238 23.3238 59.5399 59.5399 59.5399 59.5399 59.5399 7.2111 7.2111 7.2111 7.2111 7.2111 48.8365 48.8365 48.8365 48.8365 48.8365 23.3238
F11 0.0000 23.8537 32.3883 51.4782 16.1245 26.9258 36.0555 19.3132 12.1655 35.0000 23.3238 0.0000 0.0000 0.0000 0.0000 0.0000 36.2353 36.2353 36.2353 36.2353 36.2353 24.0832 24.0832 24.0832 24.0832 24.0832 46.2277 46.2277 46.2277 46.2277 46.2277 0.0000
F11_1 0.0000 23.8537 32.3883 51.4782 16.1245 26.9258 36.0555 19.3132 12.1655 35.0000 23.3238 0.0000 0.0000 0.0000 0.0000 0.0000 36.2353 36.2353 36.2353 36.2353 36.2353 24.0832 24.0832 24.0832 24.0832 24.0832 46.2277 46.2277 46.2277 46.2277 46.2277 0.0000
F11_2 0.0000 23.8537 32.3883 51.4782 16.1245 26.9258 36.0555 19.3132 12.1655 35.0000 23.3238 0.0000 0.0000 0.0000 0.0000 0.0000 36.2353 36.2353 36.2353 36.2353 36.2353 24.0832 24.0832 24.0832 24.0832 24.0832 46.2277 46.2277 46.2277 46.2277 46.2277 0.0000
F11_3 0.0000 23.8537 32.3883 51.4782 16.1245 26.9258 36.0555 19.3132 12.1655 35.0000 23.3238 0.0000 0.0000 0.0000 0.0000 0.0000 36.2353 36.2353 36.2353 36.2353 36.2353 24.0832 24.0832 24.0832 24.0832 24.0832 46.2277 46.2277 46.2277 46.2277 46.2277 0.0000
F11_4 0.0000 23.8537 32.3883 51.4782 16.1245 26.9258 36.0555 19.3132 12.1655 35.0000 23.3238 0.0000 0.0000 0.0000 0.0000 0.0000 36.2353 36.2353 36.2353 36.2353 36.2353 24.0832 24.0832 24.0832 24.0832 24.0832 46.2277 46.2277 46.2277 46.2277 46.2277 0.0000
F12 36.2353 52.1536 61.4003 63.5059 21.9317 23.4094 3.6056 55.4617 41.7253 69.1231 59.5399 36.2353 36.2353 36.2353 36.2353 36.2353 0.0000 0.0000 0.0000 0.0000 0.0000 59.4054 59.4054 59.4054 59.4054 59.4054 63.8905 63.8905 63.8905 63.8905 63.8905 36.2353
F12_1 36.2353 52.1536 61.4003 63.5059 21.9317 23.4094 3.6056 55.4617 41.7253 69.1231 59.5399 36.2353 36.2353 36.2353 36.2353 36.2353 0.0000 0.0000 0.0000 0.0000 0.0000 59.4054 59.4054 59.4054 59.4054 59.4054 63.8905 63.8905 63.8905 63.8905 63.8905 36.2353
F12_2 36.2353 52.1536 61.4003 63.5059 21.9317 23.4094 3.6056 55.4617 41.7253 69.1231 59.5399 36.2353 36.2353 36.2353 36.2353 36.2353 0.0000 0.0000 0.0000 0.0000 0.0000 59.4054 59.4054 59.4054 59.4054 59.4054 63.8905 63.8905 63.8905 63.8905 63.8905 36.2353
F12_3 36.2353 52.1536 61.4003 63.5059 21.9317 23.4094 3.6056 55.4617 41.7253 69.1231 59.5399 36.2353 36.2353 36.2353 36.2353 36.2353 0.0000 0.0000 0.0000 0.0000 0.0000 59.4054 59.4054 59.4054 59.4054 59.4054 63.8905 63.8905 63.8905 63.8905 63.8905 36.2353
F12_4 36.2353 52.1536 61.4003 63.5059 21.9317 23.4094 3.6056 55.4617 41.7253 69.1231 59.5399 36.2353 36.2353 36.2353 36.2353 36.2353 0.0000 0.0000 0.0000 0.0000 0.0000 59.4054 59.4054 59.4054 59.4054 59.4054 63.8905 63.8905 63.8905 63.8905 63.8905 36.2353
F13 24.0832 31.2570 17.8045 63.6396 37.7359 50.2494 59.6657 11.1803 18.9737 26.1725 7.2111 24.0832 24.0832 24.0832 24.0832 24.0832 59.4054 59.4054 59.4054 59.4054 59.4054 0.0000 0.0000 0.0000 0.0000 0.0000 55.5428 55.5428 55.5428 55.5428 55.5428 24.0832
F13_1 24.0832 31.2570 17.8045 63.6396 37.7359 50.2494 59.6657 11.1803 18.9737 26.1725 7.2111 24.0832 24.0832 24.0832 24.0832 24.0832 59.4054 59.4054 59.4054 59.4054 59.4054 0.0000 0.0000 0.0000 0.0000 0.0000 55.5428 55.5428 55.5428 55.5428 55.5428 24.0832
F13_2 24.0832 31.2570 17.8045 63.6396 37.7359 50.2494 59.6657 11.1803 18.9737 26.1725 7.2111 24.0832 24.0832 24.0832 24.0832 24.0832 59.4054 59.4054 59.4054 59.4054 59.4054 0.0000 0.0000 0.0000 0.0000 0.0000 55.5428 55.5428 55.5428 55.5428 55.5428 24.0832
F13_3 24.0832 31.2570 17.8045 63.6396 37.7359 50.2494 59.6657 11.1803 18.9737 26.1725 7.2111 24.0832 24.0832 24.0832 24.0832 24.0832 59.4054 59.4054 59.4054 59.4054 59.4054 0.0000 0.0000 0.0000 0.0000 0.0000 55.5428 55.5428 55.5428 55.5428 55.5428 24.0832
F13_4 24.0832 31.2570 17.8045 63.6396 37.7359 50.2494 59.6657 11.1803 18.9737 26.1725 7.2111 24.0832 24.0832 24.0832 24.0832 24.0832 59.4054 59.4054 59.4054 59.4054 59.4054 0.0000 0.0000 0.0000 0.0000 0.0000 55.5428 55.5428 55.5428 55.5428 55.5428 24.0832
F14 46.2277 24.6982 72.1110 9.8489 56.4004 40.5216 61.1310 44.3847 57.1402 36.4966 48.8365 46.2277 46.2277 46.2277 46.2277 46.2277 63.8905 63.8905 63.8905 63.8905 63.8905 55.5428 55.5428 55.5428 55.5428 55.5428 0.0000 0.0000 0.0000 0.0000 0.0000 46.2277
F14_1 46.2277 24.6982 72.1110 9.8489 56.4004 40.5216 61.1310 44.3847 57.1402 36.4966 48.8365 46.2277 46.2277 46.2277 46.2277 46.2277 63.8905 63.8905 63.8905 63.8905 63.8905 55.5428 55.5428 55.5428 55.5428 55.5428 0.0000 0.0000 0.0000 0.0000 0.0000 46.2277
F14_2 46.2277 24.6982 72.1110 9.8489 56.4004 40.5216 61.1310 44.3847 57.1402 36.4966 48.8365 46.2277 46.2277 46.2277 46.2277 46.2277 63.8905 63.8905 63.8905 63.8905 63.8905 55.5428 55.5428 55.5428 55.5428 55.5428 0.0000 0.0000 0.0000 0.0000 0.0000 46.2277
F14_3 46.2277 24.6982 72.1110 9.8489 56.4004 40.5216 61.1310 44.3847 57.1402 36.4966 48.8365 46.2277 46.2277 46.2277 46.2277 46.2277 63.8905 63.8905 63.8905 63.8905 63.8905 55.5428 55.5428 55.5428 55.5428 55.5428 0.0000 0.0000 0.0000 0.0000 0.0000 46.2277
F14_4 46.2277 24.6982 72.1110 9.8489 56.4004 40.5216 61.1310 44.3847 57.1402 36.4966 48.8365 46.2277 46.2277 46.2277 46.2277 46.2277 63.8905 63.8905 63.8905 63.8905 63.8905 55.5428 55.5428 55.5428 55.5428 55.5428 0.0000 0.0000 0.0000 0.0000 0.0000 46.2277
Nσ 0.0000 23.8537 32.3883 51.4782 16.1245 26.9258 36.0555 19.3132 12.1655 35.0000 23.3238 0.0000 0.0000 0.0000 0.0000 0.0000 36.2353 36.2353 36.2353 36.2353 36.2353 24.0832 24.0832 24.0832 24.0832 24.0832 46.2277 46.2277 46.2277 46.2277 46.2277 0.0000
;

param t : N0 C1 C2 C3 C4 C5 C6 C7 C8 C9 C10 F11 F11_1 F11_2 F11_3 F11_4 F12 F12_1 F12_2 F12_3 F12_4 F13 F13_1 F13_2 F13_3 F13_4 F14 F14_1 F14_2 F14_3 F14_4 Nσ  :=
N0 0.0000 23.8537 32.3883 51.4782 16.1245 26.9258 36.0555 19.3132 12.1655 35.0000 23.3238 0.0000 0.0000 0.0000 0.0000 0.0000 36.2353 36.2353 36.2353 36.2353 36.2353 24.0832 24.0832 24.0832 24.0832 24.0832 46.2277 46.2277 46.2277 46.2277 46.2277 0.0000
C1 23.8537 0.0000 47.4342 32.3883 37.6431 32.3110 50.4876 20.0998 33.3017 19.8494 25.0000 23.8537 23.8537 23.8537 23.8537 23.8537 52.1536 52.1536 52.1536 52.1536 52.1536 31.2570 31.2570 31.2570 31.2570 31.2570 24.6982 24.6982 24.6982 24.6982 24.6982 23.8537
C2 32.3883 47.4342 0.0000 79.5550 39.9625 58.9406 62.6817 28.1780 21.1896 43.8634 25.0000 32.3883 32.3883 32.3883 32.3883 32.3883 61.4003 61.4003 61.4003 61.4003 61.4003 17.8045 17.8045 17.8045 17.8045 17.8045 72.1110 72.1110 72.1110 72.1110 72.1110 32.3883
C3 51.4782 32.3883 79.5550 0.0000 59.4138 40.3113 60.4152 52.4690 63.0714 46.0977 57.2189 51.4782 51.4782 51.4782 51.4782 51.4782 63.5059 63.5059 63.5059 63.5059 63.5059 63.6396 63.6396 63.6396 63.6396 63.6396 9.8489 9.8489 9.8489 9.8489 9.8489 51.4782
C4 16.1245 37.6431 39.9625 59.4138 0.0000 23.7697 22.8035 35.1710 19.7990 51.0392 38.6264 16.1245 16.1245 16.1245 16.1245 16.1245 21.9317 21.9317 21.9317 21.9317 21.9317 37.7359 37.7359 37.7359 37.7359 37.7359 56.4004 56.4004 56.4004 56.4004 56.4004 16.1245
C5 26.9258 32.3110 58.9406 40.3113 23.7697 0.0000 20.6155 42.5206 37.8550 51.4782 47.6340 26.9258 26.9258 26.9258 26.9258 26.9258 23.4094 23.4094 23.4094 23.4094 23.4094 50.2494 50.2494 50.2494 50.2494 50.2494 40.5216 40.5216 40.5216 40.5216 40.5216 26.9258
C6 36.0555 50.4876 62.6817 60.4152 22.8035 20.6155 0.0000 55.0727 42.5206 68.0074 59.3633 36.0555 36.0555 36.0555 36.0555 36.0555 3.6056 3.6056 3.6056 3.6056 3.6056 59.6657 59.6657 59.6657 59.6657 59.6657 61.1310 61.1310 61.1310 61.1310 61.1310 36.0555
C7 19.3132 20.0998 28.1780 52.4690 35.1710 42.5206 55.0727 0.0000 20.6155 18.3848 5.3852 19.3132 19.3132 19.3132 19.3132 19.3132 55.4617 55.4617 55.4617 55.4617 55.4617 11.1803 11.1803 11.1803 11.1803 11.1803 44.3847 44.3847 44.3847 44.3847 44.3847 19.3132
C8 12.1655 33.3017 21.1896 63.0714 19.7990 37.8550 42.5206 20.6155 0.0000 38.8973 22.0000 12.1655 12.1655 12.1655 12.1655 12.1655 41.7253 41.7253 41.7253 41.7253 41.7253 18.9737 18.9737 18.9737 18.9737 18.9737 57.1402 57.1402 57.1402 57.1402 57.1402 12.1655
C9 35.0000 19.8494 43.8634 46.0977 51.0392 51.4782 68.0074 18.3848 38.8973 0.0000 19.2094 35.0000 35.0000 35.0000 35.0000 35.0000 69.1231 69.1231 69.1231 69.1231 69.1231 26.1725 26.1725 26.1725 26.1725 26.1725 36.4966 36.4966 36.4966 36.4966 36.4966 35.0000
C10 23.3238 25.0000 25.0000 57.2189 38.6264 47.6340 59.3633 5.3852 22.0000 19.2094 0.0000 23.3238 23.3238 23.3238 23.3238 23.3238 59.5399 59.5399 59.5399 59.5399 59.5399 7.2111 7.2111 7.2111 7.2111 7.2111 48.8365 48.8365 48.8365 48.8365 48.8365 23.3238
F11 0.0000 23.8537 32.3883 51.4782 16.1245 26.9258 36.0555 19.3132 12.1655 35.0000 23.3238 0.0000 0.0000 0.0000 0.0000 0.0000 36.2353 36.2353 36.2353 36.2353 36.2353 24.0832 24.0832 24.0832 24.0832 24.0832 46.2277 46.2277 46.2277 46.2277 46.2277 0.0000
F11_1 0.0000 23.8537 32.3883 51.4782 16.1245 26.9258 36.0555 19.3132 12.1655 35.0000 23.3238 0.0000 0.0000 0.0000 0.0000 0.0000 36.2353 36.2353 36.2353 36.2353 36.2353 24.0832 24.0832 24.0832 24.0832 24.0832 46.2277 46.2277 46.2277 46.2277 46.2277 0.0000
F11_2 0.0000 23.8537 32.3883 51.4782 16.1245 26.9258 36.0555 19.3132 12.1655 35.0000 23.3238 0.0000 0.0000 0.0000 0.0000 0.0000 36.2353 36.2353 36.2353 36.2353 36.2353 24.0832 24.0832 24.0832 24.0832 24.0832 46.2277 46.2277 46.2277 46.2277 46.2277 0.0000
F11_3 0.0000 23.8537 32.3883 51.4782 16.1245 26.9258 36.0555 19.3132 12.1655 35.0000 23.3238 0.0000 0.0000 0.0000 0.0000 0.0000 36.2353 36.2353 36.2353 36.2353 36.2353 24.0832 24.0832 24.0832 24.0832 24.0832 46.2277 46.2277 46.2277 46.2277 46.2277 0.0000
F11_4 0.0000 23.8537 32.3883 51.4782 16.1245 26.9258 36.0555 19.3132 12.1655 35.0000 23.3238 0.0000 0.0000 0.0000 0.0000 0.0000 36.2353 36.2353 36.2353 36.2353 36.2353 24.0832 24.0832 24.0832 24.0832 24.0832 46.2277 46.2277 46.2277 46.2277 46.2277 0.0000
F12 36.2353 52.1536 61.4003 63.5059 21.9317 23.4094 3.6056 55.4617 41.7253 69.1231 59.5399 36.2353 36.2353 36.2353 36.2353 36.2353 0.0000 0.0000 0.0000 0.0000 0.0000 59.4054 59.4054 59.4054 59.4054 59.4054 63.8905 63.8905 63.8905 63.8905 63.8905 36.2353
F12_1 36.2353 52.1536 61.4003 63.5059 21.9317 23.4094 3.6056 55.4617 41.7253 69.1231 59.5399 36.2353 36.2353 36.2353 36.2353 36.2353 0.0000 0.0000 0.0000 0.0000 0.0000 59.4054 59.4054 59.4054 59.4054 59.4054 63.8905 63.8905 63.8905 63.8905 63.8905 36.2353
F12_2 36.2353 52.1536 61.4003 63.5059 21.9317 23.4094 3.6056 55.4617 41.7253 69.1231 59.5399 36.2353 36.2353 36.2353 36.2353 36.2353 0.0000 0.0000 0.0000 0.0000 0.0000 59.4054 59.4054 59.4054 59.4054 59.4054 63.8905 63.8905 63.8905 63.8905 63.8905 36.2353
F12_3 36.2353 52.1536 61.4003 63.5059 21.9317 23.4094 3.6056 55.4617 41.7253 69.1231 59.5399 36.2353 36.2353 36.2353 36.2353 36.2353 0.0000 0.0000 0.0000 0.0000 0.0000 59.4054 59.4054 59.4054 59.4054 59.4054 63.8905 63.8905 63.8905 63.8905 63.8905 36.2353
F12_4 36.2353 52.1536 61.4003 63.5059 21.9317 23.4094 3.6056 55.4617 41.7253 69.1231 59.5399 36.2353 36.2353 36.2353 36.2353 36.2353 0.0000 0.0000 0.0000 0.0000 0.0000 59.4054 59.4054 59.4054 59.4054 59.4054 63.8905 63.8905 63.8905 63.8905 63.8905 36.2353
F13 24.0832 31.2570 17.8045 63.6396 37.7359 50.2494 59.6657 11.1803 18.9737 26.1725 7.2111 24.0832 24.0832 24.0832 24.0832 24.0832 59.4054 59.4054 59.4054 59.4054 59.4054 0.0000 0.0000 0.0000 0.0000 0.0000 55.5428 55.5428 55.5428 55.5428 55.5428 24.0832
F13_1 24.0832 31.2570 17.8045 63.6396 37.7359 50.2494 59.6657 11.1803 18.9737 26.1725 7.2111 24.0832 24.0832 24.0832 24.0832 24.0832 59.4054 59.4054 59.4054 59.4054 59.4054 0.0000 0.0000 0.0000 0.0000 0.0000 55.5428 55.5428 55.5428 55.5428 55.5428 24.0832
F13_2 24.0832 31.2570 17.8045 63.6396 37.7359 50.2494 59.6657 11.1803 18.9737 26.1725 7.2111 24.0832 24.0832 24.0832 24.0832 24.0832 59.4054 59.4054 59.4054 59.4054 59.4054 0.0000 0.0000 0.0000 0.0000 0.0000 55.5428 55.5428 55.5428 55.5428 55.5428 24.0832
F13_3 24.0832 31.2570 17.8045 63.6396 37.7359 50.2494 59.6657 11.1803 18.9737 26.1725 7.2111 24.0832 24.0832 24.0832 24.0832 24.0832 59.4054 59.4054 59.4054 59.4054 59.4054 0.0000 0.0000 0.0000 0.0000 0.0000 55.5428 55.5428 55.5428 55.5428 55.5428 24.0832
F13_4 24.0832 31.2570 17.8045 63.6396 37.7359 50.2494 59.6657 11.1803 18.9737 26.1725 7.2111 24.0832 24.0832 24.0832 24.0832 24.0832 59.4054 59.4054 59.4054 59.4054 59.4054 0.0000 0.0000 0.0000 0.0000 0.0000 55.5428 55.5428 55.5428 55.5428 55.5428 24.0832
F14 46.2277 24.6982 72.1110 9.8489 56.4004 40.5216 61.1310 44.3847 57.1402 36.4966 48.8365 46.2277 46.2277 46.2277 46.2277 46.2277 63.8905 63.8905 63.8905 63.8905 63.8905 55.5428 55.5428 55.5428 55.5428 55.5428 0.0000 0.0000 0.0000 0.0000 0.0000 46.2277
F14_1 46.2277 24.6982 72.1110 9.8489 56.4004 40.5216 61.1310 44.3847 57.1402 36.4966 48.8365 46.2277 46.2277 46.2277 46.2277 46.2277 63.8905 63.8905 63.8905 63.8905 63.8905 55.5428 55.5428 55.5428 55.5428 55.5428 0.0000 0.0000 0.0000 0.0000 0.0000 46.2277
F14_2 46.2277 24.6982 72.1110 9.8489 56.4004 40.5216 61.1310 44.3847 57.1402 36.4966 48.8365 46.2277 46.2277 46.2277 46.2277 46.2277 63.8905 63.8905 63.8905 63.8905 63.8905 55.5428 55.5428 55.5428 55.5428 55.5428 0.0000 0.0000 0.0000 0.0000 0.0000 46.2277
F14_3 46.2277 24.6982 72.1110 9.8489 56.4004 40.5216 61.1310 44.3847 57.1402 36.4966 48.8365 46.2277 46.2277 46.2277 46.2277 46.2277 63.8905 63.8905 63.8905 63.8905 63.8905 55.5428 55.5428 55.5428 55.5428 55.5428 0.0000 0.0000 0.0000 0.0000 0.0000 46.2277
F14_4 46.2277 24.6982 72.1110 9.8489 56.4004 40.5216 61.1310 44.3847 57.1402 36.4966 48.8365 46.2277 46.2277 46.2277 46.2277 46.2277 63.8905 63.8905 63.8905 63.8905 63.8905 55.5428 55.5428 55.5428 55.5428 55.5428 0.0000 0.0000 0.0000 0.0000 0.0000 46.2277
Nσ 0.0000 23.8537 32.3883 51.4782 16.1245 26.9258 36.0555 19.3132 12.1655 35.0000 23.3238 0.0000 0.0000 0.0000 0.0000 0.0000 36.2353 36.2353 36.2353 36.2353 36.2353 24.0832 24.0832 24.0832 24.0832 24.0832 46.2277 46.2277 46.2277 46.2277 46.2277 0.0000
;
